\* Source Pyomo model name=unknown *\

min 
x483:
-0.15679999999999999 x100
-0.15679999999999999 x101
-0.15679999999999999 x102
-0.15679999999999999 x103
-0.15679999999999999 x104
-0.15679999999999999 x105
-0.15679999999999999 x106
-0.15679999999999999 x107
-0.15679999999999999 x108
-0.15679999999999999 x109
-0.15679999999999999 x110
-0.15679999999999999 x111
-0.15679999999999999 x112
-0.15679999999999999 x113
-0.15679999999999999 x114
-0.15679999999999999 x115
-0.15679999999999999 x116
-0.15679999999999999 x117
-0.15679999999999999 x118
-0.15679999999999999 x119
-0.15679999999999999 x120
+0.2044 x265
+0.2044 x266
+0.2044 x267
+0.2044 x268
+0.2044 x269
+0.2044 x270
+0.2044 x271
+0.2044 x272
+0.2044 x273
+0.2044 x274
+0.2044 x275
+0.2044 x276
+0.2044 x277
+0.2044 x278
+0.2044 x279
+0.2044 x280
+0.2044 x281
+0.2044 x282
+0.2044 x283
+0.2044 x284
+0.2044 x285
+0.2044 x286
+0.2044 x287
+0.2044 x288
+0.33336986301369864 x337
-0.15679999999999999 x97
-0.15679999999999999 x98
-0.15679999999999999 x99

s.t.

c_e_x484_:
+1 x1
+1 x25
= 1

c_e_x485_:
+1 x2
+1 x26
= 1

c_e_x486_:
+1 x27
+1 x3
= 1

c_e_x487_:
+1 x28
+1 x4
= 1

c_e_x488_:
+1 x29
+1 x5
= 1

c_e_x489_:
+1 x30
+1 x6
= 1

c_e_x490_:
+1 x31
+1 x7
= 1

c_e_x491_:
+1 x32
+1 x8
= 1

c_e_x492_:
+1 x33
+1 x9
= 1

c_e_x493_:
+1 x10
+1 x34
= 1

c_e_x494_:
+1 x11
+1 x35
= 1

c_e_x495_:
+1 x12
+1 x36
= 1

c_e_x496_:
+1 x13
+1 x37
= 1

c_e_x497_:
+1 x14
+1 x38
= 1

c_e_x498_:
+1 x15
+1 x39
= 1

c_e_x499_:
+1 x16
+1 x40
= 1

c_e_x500_:
+1 x17
+1 x41
= 1

c_e_x501_:
+1 x18
+1 x42
= 1

c_e_x502_:
+1 x19
+1 x43
= 1

c_e_x503_:
+1 x20
+1 x44
= 1

c_e_x504_:
+1 x21
+1 x45
= 1

c_e_x505_:
+1 x22
+1 x46
= 1

c_e_x506_:
+1 x23
+1 x47
= 1

c_e_x507_:
+1 x24
+1 x48
= 1

c_u_x508_:
-500000 x25
-1 x265
<= 0

c_u_x509_:
-500000 x26
-1 x266
<= 0

c_u_x510_:
-1 x267
-500000 x27
<= 0

c_u_x511_:
-1 x268
-500000 x28
<= 0

c_u_x512_:
-1 x269
-500000 x29
<= 0

c_u_x513_:
-1 x270
-500000 x30
<= 0

c_u_x514_:
-1 x271
-500000 x31
<= 0

c_u_x515_:
-1 x272
-500000 x32
<= 0

c_u_x516_:
-1 x273
-500000 x33
<= 0

c_u_x517_:
-1 x274
-500000 x34
<= 0

c_u_x518_:
-1 x275
-500000 x35
<= 0

c_u_x519_:
-1 x276
-500000 x36
<= 0

c_u_x520_:
-1 x277
-500000 x37
<= 0

c_u_x521_:
-1 x278
-500000 x38
<= 0

c_u_x522_:
-1 x279
-500000 x39
<= 0

c_u_x523_:
-1 x280
-500000 x40
<= 0

c_u_x524_:
-1 x281
-500000 x41
<= 0

c_u_x525_:
-1 x282
-500000 x42
<= 0

c_u_x526_:
-1 x283
-500000 x43
<= 0

c_u_x527_:
-1 x284
-500000 x44
<= 0

c_u_x528_:
-1 x285
-500000 x45
<= 0

c_u_x529_:
-1 x286
-500000 x46
<= 0

c_u_x530_:
-1 x287
-500000 x47
<= 0

c_u_x531_:
-1 x288
-500000 x48
<= 0

c_u_x532_:
+500000 x1
+1 x265
<= 500000

c_u_x533_:
+500000 x2
+1 x266
<= 500000

c_u_x534_:
+1 x267
+500000 x3
<= 500000

c_u_x535_:
+1 x268
+500000 x4
<= 500000

c_u_x536_:
+1 x269
+500000 x5
<= 500000

c_u_x537_:
+1 x270
+500000 x6
<= 500000

c_u_x538_:
+1 x271
+500000 x7
<= 500000

c_u_x539_:
+1 x272
+500000 x8
<= 500000

c_u_x540_:
+1 x273
+500000 x9
<= 500000

c_u_x541_:
+500000 x10
+1 x274
<= 500000

c_u_x542_:
+500000 x11
+1 x275
<= 500000

c_u_x543_:
+500000 x12
+1 x276
<= 500000

c_u_x544_:
+500000 x13
+1 x277
<= 500000

c_u_x545_:
+500000 x14
+1 x278
<= 500000

c_u_x546_:
+500000 x15
+1 x279
<= 500000

c_u_x547_:
+500000 x16
+1 x280
<= 500000

c_u_x548_:
+500000 x17
+1 x281
<= 500000

c_u_x549_:
+500000 x18
+1 x282
<= 500000

c_u_x550_:
+500000 x19
+1 x283
<= 500000

c_u_x551_:
+500000 x20
+1 x284
<= 500000

c_u_x552_:
+500000 x21
+1 x285
<= 500000

c_u_x553_:
+500000 x22
+1 x286
<= 500000

c_u_x554_:
+500000 x23
+1 x287
<= 500000

c_u_x555_:
+500000 x24
+1 x288
<= 500000

c_u_x556_:
-500000 x1
-1 x97
<= 0

c_u_x557_:
-500000 x2
-1 x98
<= 0

c_u_x558_:
-500000 x3
-1 x99
<= 0

c_u_x559_:
-1 x100
-500000 x4
<= 0

c_u_x560_:
-1 x101
-500000 x5
<= 0

c_u_x561_:
-1 x102
-500000 x6
<= 0

c_u_x562_:
-1 x103
-500000 x7
<= 0

c_u_x563_:
-1 x104
-500000 x8
<= 0

c_u_x564_:
-1 x105
-500000 x9
<= 0

c_u_x565_:
-500000 x10
-1 x106
<= 0

c_u_x566_:
-1 x107
-500000 x11
<= 0

c_u_x567_:
-1 x108
-500000 x12
<= 0

c_u_x568_:
-1 x109
-500000 x13
<= 0

c_u_x569_:
-1 x110
-500000 x14
<= 0

c_u_x570_:
-1 x111
-500000 x15
<= 0

c_u_x571_:
-1 x112
-500000 x16
<= 0

c_u_x572_:
-1 x113
-500000 x17
<= 0

c_u_x573_:
-1 x114
-500000 x18
<= 0

c_u_x574_:
-1 x115
-500000 x19
<= 0

c_u_x575_:
-1 x116
-500000 x20
<= 0

c_u_x576_:
-1 x117
-500000 x21
<= 0

c_u_x577_:
-1 x118
-500000 x22
<= 0

c_u_x578_:
-1 x119
-500000 x23
<= 0

c_u_x579_:
-1 x120
-500000 x24
<= 0

c_u_x580_:
+500000 x25
+1 x97
<= 500000

c_u_x581_:
+500000 x26
+1 x98
<= 500000

c_u_x582_:
+500000 x27
+1 x99
<= 500000

c_u_x583_:
+1 x100
+500000 x28
<= 500000

c_u_x584_:
+1 x101
+500000 x29
<= 500000

c_u_x585_:
+1 x102
+500000 x30
<= 500000

c_u_x586_:
+1 x103
+500000 x31
<= 500000

c_u_x587_:
+1 x104
+500000 x32
<= 500000

c_u_x588_:
+1 x105
+500000 x33
<= 500000

c_u_x589_:
+1 x106
+500000 x34
<= 500000

c_u_x590_:
+1 x107
+500000 x35
<= 500000

c_u_x591_:
+1 x108
+500000 x36
<= 500000

c_u_x592_:
+1 x109
+500000 x37
<= 500000

c_u_x593_:
+1 x110
+500000 x38
<= 500000

c_u_x594_:
+1 x111
+500000 x39
<= 500000

c_u_x595_:
+1 x112
+500000 x40
<= 500000

c_u_x596_:
+1 x113
+500000 x41
<= 500000

c_u_x597_:
+1 x114
+500000 x42
<= 500000

c_u_x598_:
+1 x115
+500000 x43
<= 500000

c_u_x599_:
+1 x116
+500000 x44
<= 500000

c_u_x600_:
+1 x117
+500000 x45
<= 500000

c_u_x601_:
+1 x118
+500000 x46
<= 500000

c_u_x602_:
+1 x119
+500000 x47
<= 500000

c_u_x603_:
+1 x120
+500000 x48
<= 500000

c_e_x604_:
+1 x49
+1 x73
= 1

c_e_x605_:
+1 x50
+1 x74
= 1

c_e_x606_:
+1 x51
+1 x75
= 1

c_e_x607_:
+1 x52
+1 x76
= 1

c_e_x608_:
+1 x53
+1 x77
= 1

c_e_x609_:
+1 x54
+1 x78
= 1

c_e_x610_:
+1 x55
+1 x79
= 1

c_e_x611_:
+1 x56
+1 x80
= 1

c_e_x612_:
+1 x57
+1 x81
= 1

c_e_x613_:
+1 x58
+1 x82
= 1

c_e_x614_:
+1 x59
+1 x83
= 1

c_e_x615_:
+1 x60
+1 x84
= 1

c_e_x616_:
+1 x61
+1 x85
= 1

c_e_x617_:
+1 x62
+1 x86
= 1

c_e_x618_:
+1 x63
+1 x87
= 1

c_e_x619_:
+1 x64
+1 x88
= 1

c_e_x620_:
+1 x65
+1 x89
= 1

c_e_x621_:
+1 x66
+1 x90
= 1

c_e_x622_:
+1 x67
+1 x91
= 1

c_e_x623_:
+1 x68
+1 x92
= 1

c_e_x624_:
+1 x69
+1 x93
= 1

c_e_x625_:
+1 x70
+1 x94
= 1

c_e_x626_:
+1 x71
+1 x95
= 1

c_e_x627_:
+1 x72
+1 x96
= 1

c_u_x628_:
-1 x313
-500000 x73
<= 0

c_u_x629_:
-1 x314
-500000 x74
<= 0

c_u_x630_:
-1 x315
-500000 x75
<= 0

c_u_x631_:
-1 x316
-500000 x76
<= 0

c_u_x632_:
-1 x317
-500000 x77
<= 0

c_u_x633_:
-1 x318
-500000 x78
<= 0

c_u_x634_:
-1 x319
-500000 x79
<= 0

c_u_x635_:
-1 x320
-500000 x80
<= 0

c_u_x636_:
-1 x321
-500000 x81
<= 0

c_u_x637_:
-1 x322
-500000 x82
<= 0

c_u_x638_:
-1 x323
-500000 x83
<= 0

c_u_x639_:
-1 x324
-500000 x84
<= 0

c_u_x640_:
-1 x325
-500000 x85
<= 0

c_u_x641_:
-1 x326
-500000 x86
<= 0

c_u_x642_:
-1 x327
-500000 x87
<= 0

c_u_x643_:
-1 x328
-500000 x88
<= 0

c_u_x644_:
-1 x329
-500000 x89
<= 0

c_u_x645_:
-1 x330
-500000 x90
<= 0

c_u_x646_:
-1 x331
-500000 x91
<= 0

c_u_x647_:
-1 x332
-500000 x92
<= 0

c_u_x648_:
-1 x333
-500000 x93
<= 0

c_u_x649_:
-1 x334
-500000 x94
<= 0

c_u_x650_:
-1 x335
-500000 x95
<= 0

c_u_x651_:
-1 x336
-500000 x96
<= 0

c_u_x652_:
+1 x313
+500000 x49
<= 500000

c_u_x653_:
+1 x314
+500000 x50
<= 500000

c_u_x654_:
+1 x315
+500000 x51
<= 500000

c_u_x655_:
+1 x316
+500000 x52
<= 500000

c_u_x656_:
+1 x317
+500000 x53
<= 500000

c_u_x657_:
+1 x318
+500000 x54
<= 500000

c_u_x658_:
+1 x319
+500000 x55
<= 500000

c_u_x659_:
+1 x320
+500000 x56
<= 500000

c_u_x660_:
+1 x321
+500000 x57
<= 500000

c_u_x661_:
+1 x322
+500000 x58
<= 500000

c_u_x662_:
+1 x323
+500000 x59
<= 500000

c_u_x663_:
+1 x324
+500000 x60
<= 500000

c_u_x664_:
+1 x325
+500000 x61
<= 500000

c_u_x665_:
+1 x326
+500000 x62
<= 500000

c_u_x666_:
+1 x327
+500000 x63
<= 500000

c_u_x667_:
+1 x328
+500000 x64
<= 500000

c_u_x668_:
+1 x329
+500000 x65
<= 500000

c_u_x669_:
+1 x330
+500000 x66
<= 500000

c_u_x670_:
+1 x331
+500000 x67
<= 500000

c_u_x671_:
+1 x332
+500000 x68
<= 500000

c_u_x672_:
+1 x333
+500000 x69
<= 500000

c_u_x673_:
+1 x334
+500000 x70
<= 500000

c_u_x674_:
+1 x335
+500000 x71
<= 500000

c_u_x675_:
+1 x336
+500000 x72
<= 500000

c_u_x676_:
-1 x289
-500000 x49
<= 0

c_u_x677_:
-1 x290
-500000 x50
<= 0

c_u_x678_:
-1 x291
-500000 x51
<= 0

c_u_x679_:
-1 x292
-500000 x52
<= 0

c_u_x680_:
-1 x293
-500000 x53
<= 0

c_u_x681_:
-1 x294
-500000 x54
<= 0

c_u_x682_:
-1 x295
-500000 x55
<= 0

c_u_x683_:
-1 x296
-500000 x56
<= 0

c_u_x684_:
-1 x297
-500000 x57
<= 0

c_u_x685_:
-1 x298
-500000 x58
<= 0

c_u_x686_:
-1 x299
-500000 x59
<= 0

c_u_x687_:
-1 x300
-500000 x60
<= 0

c_u_x688_:
-1 x301
-500000 x61
<= 0

c_u_x689_:
-1 x302
-500000 x62
<= 0

c_u_x690_:
-1 x303
-500000 x63
<= 0

c_u_x691_:
-1 x304
-500000 x64
<= 0

c_u_x692_:
-1 x305
-500000 x65
<= 0

c_u_x693_:
-1 x306
-500000 x66
<= 0

c_u_x694_:
-1 x307
-500000 x67
<= 0

c_u_x695_:
-1 x308
-500000 x68
<= 0

c_u_x696_:
-1 x309
-500000 x69
<= 0

c_u_x697_:
-1 x310
-500000 x70
<= 0

c_u_x698_:
-1 x311
-500000 x71
<= 0

c_u_x699_:
-1 x312
-500000 x72
<= 0

c_u_x700_:
+1 x289
+500000 x73
<= 500000

c_u_x701_:
+1 x290
+500000 x74
<= 500000

c_u_x702_:
+1 x291
+500000 x75
<= 500000

c_u_x703_:
+1 x292
+500000 x76
<= 500000

c_u_x704_:
+1 x293
+500000 x77
<= 500000

c_u_x705_:
+1 x294
+500000 x78
<= 500000

c_u_x706_:
+1 x295
+500000 x79
<= 500000

c_u_x707_:
+1 x296
+500000 x80
<= 500000

c_u_x708_:
+1 x297
+500000 x81
<= 500000

c_u_x709_:
+1 x298
+500000 x82
<= 500000

c_u_x710_:
+1 x299
+500000 x83
<= 500000

c_u_x711_:
+1 x300
+500000 x84
<= 500000

c_u_x712_:
+1 x301
+500000 x85
<= 500000

c_u_x713_:
+1 x302
+500000 x86
<= 500000

c_u_x714_:
+1 x303
+500000 x87
<= 500000

c_u_x715_:
+1 x304
+500000 x88
<= 500000

c_u_x716_:
+1 x305
+500000 x89
<= 500000

c_u_x717_:
+1 x306
+500000 x90
<= 500000

c_u_x718_:
+1 x307
+500000 x91
<= 500000

c_u_x719_:
+1 x308
+500000 x92
<= 500000

c_u_x720_:
+1 x309
+500000 x93
<= 500000

c_u_x721_:
+1 x310
+500000 x94
<= 500000

c_u_x722_:
+1 x311
+500000 x95
<= 500000

c_u_x723_:
+1 x312
+500000 x96
<= 500000

c_e_x724_:
+1 x338
= 0

c_e_x725_:
+1 x241
-1 x289
+1 x313
-1 x338
+1 x339
= 0

c_e_x726_:
+1 x242
-1 x290
+1 x314
-1 x339
+1 x340
= 0

c_e_x727_:
+1 x243
-1 x291
+1 x315
-1 x340
+1 x341
= 0

c_e_x728_:
+1 x244
-1 x292
+1 x316
-1 x341
+1 x342
= 0

c_e_x729_:
+1 x245
-1 x293
+1 x317
-1 x342
+1 x343
= 0

c_e_x730_:
+1 x246
-1 x294
+1 x318
-1 x343
+1 x344
= 0

c_e_x731_:
+1 x247
-1 x295
+1 x319
-1 x344
+1 x345
= 0

c_e_x732_:
+1 x248
-1 x296
+1 x320
-1 x345
+1 x346
= 0

c_e_x733_:
+1 x249
-1 x297
+1 x321
-1 x346
+1 x347
= 0

c_e_x734_:
+1 x250
-1 x298
+1 x322
-1 x347
+1 x348
= 0

c_e_x735_:
+1 x251
-1 x299
+1 x323
-1 x348
+1 x349
= 0

c_e_x736_:
+1 x252
-1 x300
+1 x324
-1 x349
+1 x350
= 0

c_e_x737_:
+1 x253
-1 x301
+1 x325
-1 x350
+1 x351
= 0

c_e_x738_:
+1 x254
-1 x302
+1 x326
-1 x351
+1 x352
= 0

c_e_x739_:
+1 x255
-1 x303
+1 x327
-1 x352
+1 x353
= 0

c_e_x740_:
+1 x256
-1 x304
+1 x328
-1 x353
+1 x354
= 0

c_e_x741_:
+1 x257
-1 x305
+1 x329
-1 x354
+1 x355
= 0

c_e_x742_:
+1 x258
-1 x306
+1 x330
-1 x355
+1 x356
= 0

c_e_x743_:
+1 x259
-1 x307
+1 x331
-1 x356
+1 x357
= 0

c_e_x744_:
+1 x260
-1 x308
+1 x332
-1 x357
+1 x358
= 0

c_e_x745_:
+1 x261
-1 x309
+1 x333
-1 x358
+1 x359
= 0

c_e_x746_:
+1 x262
-1 x310
+1 x334
-1 x359
+1 x360
= 0

c_e_x747_:
+1 x263
-1 x311
+1 x335
-1 x360
+1 x361
= 0

c_e_x748_:
+1 x264
-1 x312
+1 x336
-1 x361
+1 x362
= 0

c_e_x749_:
-1 x241
-1 x242
-1 x243
-1 x244
-1 x245
-1 x246
-1 x247
-1 x248
-1 x249
-1 x250
-1 x251
-1 x252
-1 x253
-1 x254
-1 x255
-1 x256
-1 x257
-1 x258
-1 x259
-1 x260
-1 x261
-1 x262
-1 x263
-1 x264
+1 x289
+1 x290
+1 x291
+1 x292
+1 x293
+1 x294
+1 x295
+1 x296
+1 x297
+1 x298
+1 x299
+1 x300
+1 x301
+1 x302
+1 x303
+1 x304
+1 x305
+1 x306
+1 x307
+1 x308
+1 x309
+1 x310
+1 x311
+1 x312
-1 x313
-1 x314
-1 x315
-1 x316
-1 x317
-1 x318
-1 x319
-1 x320
-1 x321
-1 x322
-1 x323
-1 x324
-1 x325
-1 x326
-1 x327
-1 x328
-1 x329
-1 x330
-1 x331
-1 x332
-1 x333
-1 x334
-1 x335
-1 x336
= 0

c_e_x750_:
-1 x241
-1 x242
-1 x243
-1 x244
-1 x245
-1 x246
-1 x247
-1 x248
-1 x249
-1 x250
-1 x251
-1 x252
-1 x253
-1 x254
-1 x255
-1 x256
-1 x257
-1 x258
-1 x259
-1 x260
-1 x261
-1 x262
-1 x263
-1 x264
+1 x289
+1 x290
+1 x291
+1 x292
+1 x293
+1 x294
+1 x295
+1 x296
+1 x297
+1 x298
+1 x299
+1 x300
+1 x301
+1 x302
+1 x303
+1 x304
+1 x305
+1 x306
+1 x307
+1 x308
+1 x309
+1 x310
+1 x311
+1 x312
-1 x313
-1 x314
-1 x315
-1 x316
-1 x317
-1 x318
-1 x319
-1 x320
-1 x321
-1 x322
-1 x323
-1 x324
-1 x325
-1 x326
-1 x327
-1 x328
-1 x329
-1 x330
-1 x331
-1 x332
-1 x333
-1 x334
-1 x335
-1 x336
= 0

c_e_x751_:
-1 x241
-1 x242
-1 x243
-1 x244
-1 x245
-1 x246
-1 x247
-1 x248
-1 x249
-1 x250
-1 x251
-1 x252
-1 x253
-1 x254
-1 x255
-1 x256
-1 x257
-1 x258
-1 x259
-1 x260
-1 x261
-1 x262
-1 x263
-1 x264
+1 x289
+1 x290
+1 x291
+1 x292
+1 x293
+1 x294
+1 x295
+1 x296
+1 x297
+1 x298
+1 x299
+1 x300
+1 x301
+1 x302
+1 x303
+1 x304
+1 x305
+1 x306
+1 x307
+1 x308
+1 x309
+1 x310
+1 x311
+1 x312
-1 x313
-1 x314
-1 x315
-1 x316
-1 x317
-1 x318
-1 x319
-1 x320
-1 x321
-1 x322
-1 x323
-1 x324
-1 x325
-1 x326
-1 x327
-1 x328
-1 x329
-1 x330
-1 x331
-1 x332
-1 x333
-1 x334
-1 x335
-1 x336
= 0

c_e_x752_:
-1 x241
-1 x242
-1 x243
-1 x244
-1 x245
-1 x246
-1 x247
-1 x248
-1 x249
-1 x250
-1 x251
-1 x252
-1 x253
-1 x254
-1 x255
-1 x256
-1 x257
-1 x258
-1 x259
-1 x260
-1 x261
-1 x262
-1 x263
-1 x264
+1 x289
+1 x290
+1 x291
+1 x292
+1 x293
+1 x294
+1 x295
+1 x296
+1 x297
+1 x298
+1 x299
+1 x300
+1 x301
+1 x302
+1 x303
+1 x304
+1 x305
+1 x306
+1 x307
+1 x308
+1 x309
+1 x310
+1 x311
+1 x312
-1 x313
-1 x314
-1 x315
-1 x316
-1 x317
-1 x318
-1 x319
-1 x320
-1 x321
-1 x322
-1 x323
-1 x324
-1 x325
-1 x326
-1 x327
-1 x328
-1 x329
-1 x330
-1 x331
-1 x332
-1 x333
-1 x334
-1 x335
-1 x336
= 0

c_e_x753_:
-1 x241
-1 x242
-1 x243
-1 x244
-1 x245
-1 x246
-1 x247
-1 x248
-1 x249
-1 x250
-1 x251
-1 x252
-1 x253
-1 x254
-1 x255
-1 x256
-1 x257
-1 x258
-1 x259
-1 x260
-1 x261
-1 x262
-1 x263
-1 x264
+1 x289
+1 x290
+1 x291
+1 x292
+1 x293
+1 x294
+1 x295
+1 x296
+1 x297
+1 x298
+1 x299
+1 x300
+1 x301
+1 x302
+1 x303
+1 x304
+1 x305
+1 x306
+1 x307
+1 x308
+1 x309
+1 x310
+1 x311
+1 x312
-1 x313
-1 x314
-1 x315
-1 x316
-1 x317
-1 x318
-1 x319
-1 x320
-1 x321
-1 x322
-1 x323
-1 x324
-1 x325
-1 x326
-1 x327
-1 x328
-1 x329
-1 x330
-1 x331
-1 x332
-1 x333
-1 x334
-1 x335
-1 x336
= 0

c_e_x754_:
-1 x241
-1 x242
-1 x243
-1 x244
-1 x245
-1 x246
-1 x247
-1 x248
-1 x249
-1 x250
-1 x251
-1 x252
-1 x253
-1 x254
-1 x255
-1 x256
-1 x257
-1 x258
-1 x259
-1 x260
-1 x261
-1 x262
-1 x263
-1 x264
+1 x289
+1 x290
+1 x291
+1 x292
+1 x293
+1 x294
+1 x295
+1 x296
+1 x297
+1 x298
+1 x299
+1 x300
+1 x301
+1 x302
+1 x303
+1 x304
+1 x305
+1 x306
+1 x307
+1 x308
+1 x309
+1 x310
+1 x311
+1 x312
-1 x313
-1 x314
-1 x315
-1 x316
-1 x317
-1 x318
-1 x319
-1 x320
-1 x321
-1 x322
-1 x323
-1 x324
-1 x325
-1 x326
-1 x327
-1 x328
-1 x329
-1 x330
-1 x331
-1 x332
-1 x333
-1 x334
-1 x335
-1 x336
= 0

c_e_x755_:
-1 x241
-1 x242
-1 x243
-1 x244
-1 x245
-1 x246
-1 x247
-1 x248
-1 x249
-1 x250
-1 x251
-1 x252
-1 x253
-1 x254
-1 x255
-1 x256
-1 x257
-1 x258
-1 x259
-1 x260
-1 x261
-1 x262
-1 x263
-1 x264
+1 x289
+1 x290
+1 x291
+1 x292
+1 x293
+1 x294
+1 x295
+1 x296
+1 x297
+1 x298
+1 x299
+1 x300
+1 x301
+1 x302
+1 x303
+1 x304
+1 x305
+1 x306
+1 x307
+1 x308
+1 x309
+1 x310
+1 x311
+1 x312
-1 x313
-1 x314
-1 x315
-1 x316
-1 x317
-1 x318
-1 x319
-1 x320
-1 x321
-1 x322
-1 x323
-1 x324
-1 x325
-1 x326
-1 x327
-1 x328
-1 x329
-1 x330
-1 x331
-1 x332
-1 x333
-1 x334
-1 x335
-1 x336
= 0

c_e_x756_:
-1 x241
-1 x242
-1 x243
-1 x244
-1 x245
-1 x246
-1 x247
-1 x248
-1 x249
-1 x250
-1 x251
-1 x252
-1 x253
-1 x254
-1 x255
-1 x256
-1 x257
-1 x258
-1 x259
-1 x260
-1 x261
-1 x262
-1 x263
-1 x264
+1 x289
+1 x290
+1 x291
+1 x292
+1 x293
+1 x294
+1 x295
+1 x296
+1 x297
+1 x298
+1 x299
+1 x300
+1 x301
+1 x302
+1 x303
+1 x304
+1 x305
+1 x306
+1 x307
+1 x308
+1 x309
+1 x310
+1 x311
+1 x312
-1 x313
-1 x314
-1 x315
-1 x316
-1 x317
-1 x318
-1 x319
-1 x320
-1 x321
-1 x322
-1 x323
-1 x324
-1 x325
-1 x326
-1 x327
-1 x328
-1 x329
-1 x330
-1 x331
-1 x332
-1 x333
-1 x334
-1 x335
-1 x336
= 0

c_e_x757_:
-1 x241
-1 x242
-1 x243
-1 x244
-1 x245
-1 x246
-1 x247
-1 x248
-1 x249
-1 x250
-1 x251
-1 x252
-1 x253
-1 x254
-1 x255
-1 x256
-1 x257
-1 x258
-1 x259
-1 x260
-1 x261
-1 x262
-1 x263
-1 x264
+1 x289
+1 x290
+1 x291
+1 x292
+1 x293
+1 x294
+1 x295
+1 x296
+1 x297
+1 x298
+1 x299
+1 x300
+1 x301
+1 x302
+1 x303
+1 x304
+1 x305
+1 x306
+1 x307
+1 x308
+1 x309
+1 x310
+1 x311
+1 x312
-1 x313
-1 x314
-1 x315
-1 x316
-1 x317
-1 x318
-1 x319
-1 x320
-1 x321
-1 x322
-1 x323
-1 x324
-1 x325
-1 x326
-1 x327
-1 x328
-1 x329
-1 x330
-1 x331
-1 x332
-1 x333
-1 x334
-1 x335
-1 x336
= 0

c_e_x758_:
-1 x241
-1 x242
-1 x243
-1 x244
-1 x245
-1 x246
-1 x247
-1 x248
-1 x249
-1 x250
-1 x251
-1 x252
-1 x253
-1 x254
-1 x255
-1 x256
-1 x257
-1 x258
-1 x259
-1 x260
-1 x261
-1 x262
-1 x263
-1 x264
+1 x289
+1 x290
+1 x291
+1 x292
+1 x293
+1 x294
+1 x295
+1 x296
+1 x297
+1 x298
+1 x299
+1 x300
+1 x301
+1 x302
+1 x303
+1 x304
+1 x305
+1 x306
+1 x307
+1 x308
+1 x309
+1 x310
+1 x311
+1 x312
-1 x313
-1 x314
-1 x315
-1 x316
-1 x317
-1 x318
-1 x319
-1 x320
-1 x321
-1 x322
-1 x323
-1 x324
-1 x325
-1 x326
-1 x327
-1 x328
-1 x329
-1 x330
-1 x331
-1 x332
-1 x333
-1 x334
-1 x335
-1 x336
= 0

c_e_x759_:
-1 x241
-1 x242
-1 x243
-1 x244
-1 x245
-1 x246
-1 x247
-1 x248
-1 x249
-1 x250
-1 x251
-1 x252
-1 x253
-1 x254
-1 x255
-1 x256
-1 x257
-1 x258
-1 x259
-1 x260
-1 x261
-1 x262
-1 x263
-1 x264
+1 x289
+1 x290
+1 x291
+1 x292
+1 x293
+1 x294
+1 x295
+1 x296
+1 x297
+1 x298
+1 x299
+1 x300
+1 x301
+1 x302
+1 x303
+1 x304
+1 x305
+1 x306
+1 x307
+1 x308
+1 x309
+1 x310
+1 x311
+1 x312
-1 x313
-1 x314
-1 x315
-1 x316
-1 x317
-1 x318
-1 x319
-1 x320
-1 x321
-1 x322
-1 x323
-1 x324
-1 x325
-1 x326
-1 x327
-1 x328
-1 x329
-1 x330
-1 x331
-1 x332
-1 x333
-1 x334
-1 x335
-1 x336
= 0

c_e_x760_:
-1 x241
-1 x242
-1 x243
-1 x244
-1 x245
-1 x246
-1 x247
-1 x248
-1 x249
-1 x250
-1 x251
-1 x252
-1 x253
-1 x254
-1 x255
-1 x256
-1 x257
-1 x258
-1 x259
-1 x260
-1 x261
-1 x262
-1 x263
-1 x264
+1 x289
+1 x290
+1 x291
+1 x292
+1 x293
+1 x294
+1 x295
+1 x296
+1 x297
+1 x298
+1 x299
+1 x300
+1 x301
+1 x302
+1 x303
+1 x304
+1 x305
+1 x306
+1 x307
+1 x308
+1 x309
+1 x310
+1 x311
+1 x312
-1 x313
-1 x314
-1 x315
-1 x316
-1 x317
-1 x318
-1 x319
-1 x320
-1 x321
-1 x322
-1 x323
-1 x324
-1 x325
-1 x326
-1 x327
-1 x328
-1 x329
-1 x330
-1 x331
-1 x332
-1 x333
-1 x334
-1 x335
-1 x336
= 0

c_e_x761_:
-1 x241
-1 x242
-1 x243
-1 x244
-1 x245
-1 x246
-1 x247
-1 x248
-1 x249
-1 x250
-1 x251
-1 x252
-1 x253
-1 x254
-1 x255
-1 x256
-1 x257
-1 x258
-1 x259
-1 x260
-1 x261
-1 x262
-1 x263
-1 x264
+1 x289
+1 x290
+1 x291
+1 x292
+1 x293
+1 x294
+1 x295
+1 x296
+1 x297
+1 x298
+1 x299
+1 x300
+1 x301
+1 x302
+1 x303
+1 x304
+1 x305
+1 x306
+1 x307
+1 x308
+1 x309
+1 x310
+1 x311
+1 x312
-1 x313
-1 x314
-1 x315
-1 x316
-1 x317
-1 x318
-1 x319
-1 x320
-1 x321
-1 x322
-1 x323
-1 x324
-1 x325
-1 x326
-1 x327
-1 x328
-1 x329
-1 x330
-1 x331
-1 x332
-1 x333
-1 x334
-1 x335
-1 x336
= 0

c_e_x762_:
-1 x241
-1 x242
-1 x243
-1 x244
-1 x245
-1 x246
-1 x247
-1 x248
-1 x249
-1 x250
-1 x251
-1 x252
-1 x253
-1 x254
-1 x255
-1 x256
-1 x257
-1 x258
-1 x259
-1 x260
-1 x261
-1 x262
-1 x263
-1 x264
+1 x289
+1 x290
+1 x291
+1 x292
+1 x293
+1 x294
+1 x295
+1 x296
+1 x297
+1 x298
+1 x299
+1 x300
+1 x301
+1 x302
+1 x303
+1 x304
+1 x305
+1 x306
+1 x307
+1 x308
+1 x309
+1 x310
+1 x311
+1 x312
-1 x313
-1 x314
-1 x315
-1 x316
-1 x317
-1 x318
-1 x319
-1 x320
-1 x321
-1 x322
-1 x323
-1 x324
-1 x325
-1 x326
-1 x327
-1 x328
-1 x329
-1 x330
-1 x331
-1 x332
-1 x333
-1 x334
-1 x335
-1 x336
= 0

c_e_x763_:
-1 x241
-1 x242
-1 x243
-1 x244
-1 x245
-1 x246
-1 x247
-1 x248
-1 x249
-1 x250
-1 x251
-1 x252
-1 x253
-1 x254
-1 x255
-1 x256
-1 x257
-1 x258
-1 x259
-1 x260
-1 x261
-1 x262
-1 x263
-1 x264
+1 x289
+1 x290
+1 x291
+1 x292
+1 x293
+1 x294
+1 x295
+1 x296
+1 x297
+1 x298
+1 x299
+1 x300
+1 x301
+1 x302
+1 x303
+1 x304
+1 x305
+1 x306
+1 x307
+1 x308
+1 x309
+1 x310
+1 x311
+1 x312
-1 x313
-1 x314
-1 x315
-1 x316
-1 x317
-1 x318
-1 x319
-1 x320
-1 x321
-1 x322
-1 x323
-1 x324
-1 x325
-1 x326
-1 x327
-1 x328
-1 x329
-1 x330
-1 x331
-1 x332
-1 x333
-1 x334
-1 x335
-1 x336
= 0

c_e_x764_:
-1 x241
-1 x242
-1 x243
-1 x244
-1 x245
-1 x246
-1 x247
-1 x248
-1 x249
-1 x250
-1 x251
-1 x252
-1 x253
-1 x254
-1 x255
-1 x256
-1 x257
-1 x258
-1 x259
-1 x260
-1 x261
-1 x262
-1 x263
-1 x264
+1 x289
+1 x290
+1 x291
+1 x292
+1 x293
+1 x294
+1 x295
+1 x296
+1 x297
+1 x298
+1 x299
+1 x300
+1 x301
+1 x302
+1 x303
+1 x304
+1 x305
+1 x306
+1 x307
+1 x308
+1 x309
+1 x310
+1 x311
+1 x312
-1 x313
-1 x314
-1 x315
-1 x316
-1 x317
-1 x318
-1 x319
-1 x320
-1 x321
-1 x322
-1 x323
-1 x324
-1 x325
-1 x326
-1 x327
-1 x328
-1 x329
-1 x330
-1 x331
-1 x332
-1 x333
-1 x334
-1 x335
-1 x336
= 0

c_e_x765_:
-1 x241
-1 x242
-1 x243
-1 x244
-1 x245
-1 x246
-1 x247
-1 x248
-1 x249
-1 x250
-1 x251
-1 x252
-1 x253
-1 x254
-1 x255
-1 x256
-1 x257
-1 x258
-1 x259
-1 x260
-1 x261
-1 x262
-1 x263
-1 x264
+1 x289
+1 x290
+1 x291
+1 x292
+1 x293
+1 x294
+1 x295
+1 x296
+1 x297
+1 x298
+1 x299
+1 x300
+1 x301
+1 x302
+1 x303
+1 x304
+1 x305
+1 x306
+1 x307
+1 x308
+1 x309
+1 x310
+1 x311
+1 x312
-1 x313
-1 x314
-1 x315
-1 x316
-1 x317
-1 x318
-1 x319
-1 x320
-1 x321
-1 x322
-1 x323
-1 x324
-1 x325
-1 x326
-1 x327
-1 x328
-1 x329
-1 x330
-1 x331
-1 x332
-1 x333
-1 x334
-1 x335
-1 x336
= 0

c_e_x766_:
-1 x241
-1 x242
-1 x243
-1 x244
-1 x245
-1 x246
-1 x247
-1 x248
-1 x249
-1 x250
-1 x251
-1 x252
-1 x253
-1 x254
-1 x255
-1 x256
-1 x257
-1 x258
-1 x259
-1 x260
-1 x261
-1 x262
-1 x263
-1 x264
+1 x289
+1 x290
+1 x291
+1 x292
+1 x293
+1 x294
+1 x295
+1 x296
+1 x297
+1 x298
+1 x299
+1 x300
+1 x301
+1 x302
+1 x303
+1 x304
+1 x305
+1 x306
+1 x307
+1 x308
+1 x309
+1 x310
+1 x311
+1 x312
-1 x313
-1 x314
-1 x315
-1 x316
-1 x317
-1 x318
-1 x319
-1 x320
-1 x321
-1 x322
-1 x323
-1 x324
-1 x325
-1 x326
-1 x327
-1 x328
-1 x329
-1 x330
-1 x331
-1 x332
-1 x333
-1 x334
-1 x335
-1 x336
= 0

